100
14 -83 -4 16 91 -39 64 48 50 -51 -74 -99 -17 45 83 -41 -49 -84 83 82 -65 -39 -43 -94 -26 67 2 63 21 -67 57 44 13 -35 20 -23 61 10 -31 -27 -30 -40 37 57 60 -60 -70 85 -8 37 -39 49 -16 23 -41 -94 -56 30 -31 20 -88 68 76 -94 25 -17 -57 -24 -93 47 -45 96 93 33 35 -45 -21 -99 -61 -47 54 -31 -98 43 4 14 7 -57 -38 95 -22 -83 26 -61 -50 53 47 -45 39 -63
-14 83 4 -16 -91 39 -64 -48 -50 51 74 99 17 -45 -83 41 49 84 -83 -82 65 39 43 94 26 -67 -2 -63 -21 67 -57 -44 -13 35 -20 23 -61 -10 31 27 30 40 -37 -57 -60 60 70 -85 8 -37 39 -49 16 -23 41 94 56 -30 31 -20 88 -68 -76 94 -25 17 57 24 93 -47 45 -96 -93 -33 -35 45 21 99 61 47 -54 31 98 -43 -4 -14 -7 57 38 -95 22 83 -26 61 50 -53 -47 45 -39 63
